language ESSENCE' 1.0
letting lastdx=106
letting cage be [
[11,13,13,0,0, 0,0, 0,0, 0,0],
[51,10,11,10,12,11,12,11,11,11,10],
[10,3,14,0,0, 0,0, 0,0, 0,0],
[6,4,12,0,0, 0,0, 0,0, 0,0],
[13,12,6,0,0, 0,0, 0,0, 0,0],
[11,16,1,0,0, 0,0, 0,0, 0,0],
[21,13,11,13,10,0,0, 0,0, 0,0],
[11,15,8,0,0, 0,0, 0,0, 0,0],
[27,9,3,9,4,10,4,10,3,0,0],
[44,4,4,4,5,4,6,5,6,0,0],
[13,5,4,0,0, 0,0, 0,0, 0,0],
[16,8,6,8,5,9,5,0,0, 0,0],
[6,13,14,0,0, 0,0, 0,0, 0,0],
[39,2,13,1,13,1,12,2,12,2,11],
[10,11,2,0,0, 0,0, 0,0, 0,0],
[34,16,11,16,12,15,12,15,11,15,10],
[53,14,14,14,15,13,15,13,16,14,16],
[2,6,12,0,0, 0,0, 0,0, 0,0],
[13,15,13,14,13,0,0, 0,0, 0,0],
[13,3,16,0,0, 0,0, 0,0, 0,0],
[6,4,9,4,8,0,0, 0,0, 0,0],
[14,11,8,0,0, 0,0, 0,0, 0,0],
[8,7,5,0,0, 0,0, 0,0, 0,0],
[22,3,8,3,7,3,6,3,5,0,0],
[43,6,6,6,7,5,7,4,7,5,8],
[8,4,13,0,0, 0,0, 0,0, 0,0],
[16,16,16,0,0, 0,0, 0,0, 0,0],
[43,7,3,6,3,6,2,7,2,0,0],
[36,14,7,14,8,13,8,13,7,12,7],
[6,5,10,0,0, 0,0, 0,0, 0,0],
[23,3,4,2,4,2,5,0,0, 0,0],
[6,2,16,0,0, 0,0, 0,0, 0,0],
[10,2,6,2,7,0,0, 0,0, 0,0],
[11,2,14,0,0, 0,0, 0,0, 0,0],
[24,9,11,8,11,7,11,0,0, 0,0],
[13,15,15,15,16,16,15,0,0, 0,0],
[21,5,5,6,5,6,4,0,0, 0,0],
[38,1,9,2,9,2,8,1,8,0,0],
[25,1,6,1,7,0,0, 0,0, 0,0],
[11,3,11,0,0, 0,0, 0,0, 0,0],
[15,13,5,0,0, 0,0, 0,0, 0,0],
[11,15,4,15,5,0,0, 0,0, 0,0],
[16,14,1,14,2,14,3,14,4,0,0],
[16,8,9,0,0, 0,0, 0,0, 0,0],
[10,4,11,5,11,0,0, 0,0, 0,0],
[24,13,6,14,6,14,5,0,0, 0,0],
[23,16,8,16,9,16,10,0,0, 0,0],
[7,12,9,12,8,0,0, 0,0, 0,0],
[19,5,13,5,12,0,0, 0,0, 0,0],
[10,8,2,9,2,0,0, 0,0, 0,0],
[8,3,9,0,0, 0,0, 0,0, 0,0],
[32,1,5,1,4,1,3,2,3,0,0],
[52,4,1,5,1,5,2,5,3,4,3],
[3,7,12,0,0, 0,0, 0,0, 0,0],
[10,10,6,0,0, 0,0, 0,0, 0,0],
[14,6,11,0,0, 0,0, 0,0, 0,0],
[7,10,1,10,2,0,0, 0,0, 0,0],
[15,9,13,0,0, 0,0, 0,0, 0,0],
[29,15,2,15,1,0,0, 0,0, 0,0],
[16,10,16,10,15,0,0, 0,0, 0,0],
[21,3,15,4,15,0,0, 0,0, 0,0],
[27,13,9,14,9,15,9,0,0, 0,0],
[11,7,16,0,0, 0,0, 0,0, 0,0],
[25,7,10,8,10,9,10,10,10,0,0],
[1,10,5,0,0, 0,0, 0,0, 0,0],
[1,6,14,0,0, 0,0, 0,0, 0,0],
[19,14,10,14,11,0,0, 0,0, 0,0],
[33,7,6,7,7,8,7,0,0, 0,0],
[5,16,7,0,0, 0,0, 0,0, 0,0],
[18,12,5,11,5,0,0, 0,0, 0,0],
[21,8,4,7,4,8,3,0,0, 0,0],
[28,7,8,7,9,0,0, 0,0, 0,0],
[24,10,8,10,9,11,9,9,9,0,0],
[5,1,11,0,0, 0,0, 0,0, 0,0],
[3,4,16,0,0, 0,0, 0,0, 0,0],
[12,12,13,0,0, 0,0, 0,0, 0,0],
[20,15,7,15,6,0,0, 0,0, 0,0],
[4,8,14,0,0, 0,0, 0,0, 0,0],
[8,1,1,1,2,0,0, 0,0, 0,0],
[10,12,16,0,0, 0,0, 0,0, 0,0],
[12,8,15,0,0, 0,0, 0,0, 0,0],
[13,2,10,1,10,0,0, 0,0, 0,0],
[4,12,15,12,14,0,0, 0,0, 0,0],
[16,3,12,3,13,0,0, 0,0, 0,0],
[26,13,1,13,2,12,2,0,0, 0,0],
[24,12,4,13,4,13,3,0,0, 0,0],
[7,2,1,0,0, 0,0, 0,0, 0,0],
[44,3,2,2,2,3,1,3,3,4,2],
[37,9,6,9,7,9,8,8,8,0,0],
[25,9,15,9,16,8,16,0,0, 0,0],
[41,16,3,15,3,16,2,16,4,0,0],
[50,2,15,1,15,1,14,1,16,0,0],
[15,4,10,3,10,0,0, 0,0, 0,0],
[23,4,14,5,14,0,0, 0,0, 0,0],
[15,5,9,0,0, 0,0, 0,0, 0,0],
[28,5,15,6,15,6,16,5,16,0,0],
[31,6,1,7,1,8,1,9,1,0,0],
[15,6,8,0,0, 0,0, 0,0, 0,0],
[20,6,9,6,10,0,0, 0,0, 0,0],
[17,7,14,7,15,0,0, 0,0, 0,0],
[44,9,14,10,14,10,13,11,13,11,14],
[25,10,7,11,7,11,6,0,0, 0,0],
[27,11,1,12,1,0,0, 0,0, 0,0],
[37,11,3,11,4,12,3,0,0, 0,0],
[15,11,15,11,16,0,0, 0,0, 0,0],
[24,15,14,16,14,16,13,0,0, 0,0],
[21,16,5,16,6,0,0, 0,0, 0,0]
]
